Maximize
F - f1 - f2

Subject to
F - 4y289 - 2y215 - 2y16 - 6y233 - 2y133 - 4y149 - 2y177 - 2y48 - 8y205 - 4y2 - 6y269 - 2y80 - 8y64 - 2y30 - 4y55 - 8y229 - 2y250 - 4y288 - 4y161 - 2y242 = 0
f1 - 0.005780s289 - 0.005780s215 - 0.005780s16 - 0.005780s233 - 0.005780s133 - 0.005780s149 - 0.005780s177 - 0.005780s48 - 0.005780s205 - 0.005780s2 - 0.005780s269 - 0.005780s80 - 0.005780s64 - 0.005780s30 - 0.005780s55 - 0.005780s229 - 0.005780s250 - 0.005780s288 - 0.005780s161 - 0.005780s242  = 0
f2 - 0.92y289 - 0.90y215 - 0.79y16 - 0.37y233 - 0.27y133 - 0.45y149 - 0.40y177 - 0.37y48 - 0.47y205 - 0.45y2 - 0.25y269 - 0.50y80 - 0.48y64 - 0.58y30 - 0.58y55 - 0.58y229 - 0.53y250 - 0.45y288 - 0.41y161 - 0.14y242 = 0

x246x233x1 + x246x149x1 + x246x177x1 + x246x205x1 + x246x269x1 + x246x80x1 + x246x64x1 + x246x55x1 + x246x229x1 + x246x250x1 + x246x288x1 + x246x161x1 + x246x242x1 
<= 1
x296x233x1 + x296x149x1 + x296x177x1 + x296x205x1 + x296x269x1 + x296x80x1 + x296x64x1 + x296x55x1 + x296x229x1 + x296x250x1 + x296x288x1 + x296x161x1 + x296x242x1 
<= 2
x135x233x1 + x135x149x1 + x135x177x1 + x135x205x1 + x135x269x1 + x135x80x1 + x135x64x1 + x135x55x1 + x135x229x1 + x135x250x1 + x135x288x1 + x135x161x1 + x135x242x1 
<= 1
x88x233x1 + x88x149x1 + x88x177x1 + x88x205x1 + x88x269x1 + x88x80x1 + x88x64x1 + x88x55x1 + x88x229x1 + x88x250x1 + x88x288x1 + x88x161x1 + x88x242x1 
<= 1
x251x288x1 + x251x161x1 + x251x242x1 
<= 1
x66x288x1 + x66x161x1 + x66x242x1 
<= 2
x226x161x1 + x226x242x1 
<= 1
x246x16x2 + x246x133x2 + x246x48x2 + x246x80x2 + x246x30x2 + x246x242x2 
<= 1
x204x215x2 + x204x16x2 + x204x133x2 + x204x48x2 + x204x80x2 + x204x30x2 + x204x242x2 
<= 1
x58x215x2 + x58x16x2 + x58x133x2 + x58x48x2 + x58x80x2 + x58x30x2 + x58x242x2 
<= 1
x135x215x2 + x135x16x2 + x135x133x2 + x135x48x2 + x135x80x2 + x135x30x2 + x135x242x2 
<= 1
x187x215x2 + x187x16x2 + x187x133x2 + x187x48x2 + x187x80x2 + x187x30x2 + x187x242x2 
<= 1
x88x133x2 + x88x48x2 + x88x80x2 + x88x30x2 + x88x242x2 
<= 1
x99x133x2 + x99x48x2 + x99x80x2 + x99x30x2 + x99x242x2 
<= 1
x3x16x2 + x3x133x2 + x3x48x2 + x3x80x2 + x3x30x2 + x3x242x2 
<= 1
x254x215x2 + x254x16x2 + x254x133x2 + x254x48x2 + x254x80x2 + x254x30x2 + x254x242x2 
<= 1
x204x289x3 + x204x133x3 + x204x205x3 + x204x2x3 + x204x64x3 + x204x229x3 + x204x250x3 
<= 1
x267x133x3 + x267x205x3 + x267x2x3 + x267x64x3 + x267x229x3 + x267x250x3 
<= 2
x99x133x3 + x99x205x3 + x99x2x3 + x99x64x3 + x99x229x3 + x99x250x3 
<= 1
x3x133x3 + x3x205x3 + x3x2x3 + x3x64x3 + x3x229x3 + x3x250x3 
<= 1


x204x289x3 
- x289x0x3
- x289x133x3 - x289x205x3 - x289x2x3 - x289x64x3 - x289x229x3 - x289x250x3 
= 0


x204x215x2 + x58x215x2 + x135x215x2 + x187x215x2 + x254x215x2 
- x215x0x2
- x215x16x2 - x215x133x2 - x215x48x2 - x215x80x2 - x215x30x2 - x215x242x2 
= 0



x246x16x2 + x204x16x2 + x58x16x2 + x135x16x2 + x187x16x2 + x3x16x2 + x254x16x2 + x215x16x2 
- x16x0x2
- x16x133x2 - x16x48x2 - x16x80x2 - x16x30x2 - x16x242x2 
= 0


x246x233x1 + x296x233x1 + x135x233x1 + x88x233x1 
- x233x0x1
- x233x149x1 - x233x177x1 - x233x205x1 - x233x269x1 - x233x80x1 - x233x64x1 - x233x55x1 - x233x229x1 - x233x250x1 - x233x288x1 - x233x161x1 - x233x242x1 
= 0




x246x133x2 + x204x133x2 + x58x133x2 + x135x133x2 + x187x133x2 + x88x133x2 + x99x133x2 + x3x133x2 + x254x133x2 + x215x133x2 + x16x133x2 
- x133x0x2
- x133x48x2 - x133x80x2 - x133x30x2 - x133x242x2 
= 0
x204x133x3 + x267x133x3 + x99x133x3 + x3x133x3 + x289x133x3 
- x133x0x3
- x133x2x3 - x133x64x3 - x133x229x3 - x133x250x3 
= 0

x246x149x1 + x296x149x1 + x135x149x1 + x88x149x1 + x233x149x1 
- x149x0x1
- x149x205x1 - x149x80x1 - x149x64x1 - x149x55x1 - x149x229x1 - x149x250x1 - x149x288x1 - x149x161x1 - x149x242x1 
= 0



x246x177x1 + x296x177x1 + x135x177x1 + x88x177x1 + x233x177x1 
- x177x0x1
- x177x205x1 - x177x80x1 - x177x64x1 - x177x55x1 - x177x229x1 - x177x250x1 - x177x288x1 - x177x161x1 - x177x242x1 
= 0




x246x48x2 + x204x48x2 + x58x48x2 + x135x48x2 + x187x48x2 + x88x48x2 + x99x48x2 + x3x48x2 + x254x48x2 + x215x48x2 + x16x48x2 + x133x48x2 
- x48x0x2
- x48x80x2 - x48x30x2 - x48x242x2 
= 0


x246x205x1 + x296x205x1 + x135x205x1 + x88x205x1 + x233x205x1 + x149x205x1 + x177x205x1 
- x205x0x1
- x205x80x1 - x205x64x1 - x205x55x1 - x205x229x1 - x205x250x1 - x205x288x1 - x205x161x1 - x205x242x1 
= 0

x204x205x3 + x267x205x3 + x99x205x3 + x3x205x3 + x289x205x3 
- x205x0x3
- x205x2x3 - x205x64x3 - x205x229x3 - x205x250x3 
= 0



x204x2x3 + x267x2x3 + x99x2x3 + x3x2x3 + x289x2x3 + x133x2x3 + x205x2x3 
- x2x0x3
- x2x64x3 - x2x229x3 - x2x250x3 
= 0

x246x269x1 + x296x269x1 + x135x269x1 + x88x269x1 + x233x269x1 
- x269x0x1
- x269x55x1 - x269x229x1 - x269x250x1 - x269x288x1 - x269x161x1 - x269x242x1 
= 0



x246x80x1 + x296x80x1 + x135x80x1 + x88x80x1 + x233x80x1 + x149x80x1 + x177x80x1 + x205x80x1 
- x80x0x1
- x80x64x1 - x80x55x1 - x80x229x1 - x80x250x1 - x80x288x1 - x80x161x1 - x80x242x1 
= 0
x246x80x2 + x204x80x2 + x58x80x2 + x135x80x2 + x187x80x2 + x88x80x2 + x99x80x2 + x3x80x2 + x254x80x2 + x215x80x2 + x16x80x2 + x133x80x2 + x48x80x2 
- x80x0x2
- x80x30x2 - x80x242x2 
= 0


x246x64x1 + x296x64x1 + x135x64x1 + x88x64x1 + x233x64x1 + x149x64x1 + x177x64x1 + x205x64x1 + x80x64x1 
- x64x0x1
- x64x55x1 - x64x229x1 - x64x250x1 - x64x288x1 - x64x161x1 - x64x242x1 
= 0

x204x64x3 + x267x64x3 + x99x64x3 + x3x64x3 + x289x64x3 + x133x64x3 + x205x64x3 + x2x64x3 
- x64x0x3
- x64x229x3 - x64x250x3 
= 0


x246x30x2 + x204x30x2 + x58x30x2 + x135x30x2 + x187x30x2 + x88x30x2 + x99x30x2 + x3x30x2 + x254x30x2 + x215x30x2 + x16x30x2 + x133x30x2 + x48x30x2 + x80x30x2 
- x30x0x2
- x30x242x2 
= 0


x246x55x1 + x296x55x1 + x135x55x1 + x88x55x1 + x233x55x1 + x149x55x1 + x177x55x1 + x205x55x1 + x269x55x1 + x80x55x1 + x64x55x1 
- x55x0x1
- x55x229x1 - x55x161x1 - x55x242x1 
= 0



x246x229x1 + x296x229x1 + x135x229x1 + x88x229x1 + x233x229x1 + x149x229x1 + x177x229x1 + x205x229x1 + x269x229x1 + x80x229x1 + x64x229x1 + x55x229x1 
- x229x0x1
- x229x161x1 - x229x242x1 
= 0

x204x229x3 + x267x229x3 + x99x229x3 + x3x229x3 + x289x229x3 + x133x229x3 + x205x229x3 + x2x229x3 + x64x229x3 
- x229x0x3

= 0

x246x250x1 + x296x250x1 + x135x250x1 + x88x250x1 + x233x250x1 + x149x250x1 + x177x250x1 + x205x250x1 + x269x250x1 + x80x250x1 + x64x250x1 
- x250x0x1
- x250x161x1 - x250x242x1 
= 0

x204x250x3 + x267x250x3 + x99x250x3 + x3x250x3 + x289x250x3 + x133x250x3 + x205x250x3 + x2x250x3 + x64x250x3 
- x250x0x3

= 0

x246x288x1 + x296x288x1 + x135x288x1 + x88x288x1 + x251x288x1 + x66x288x1 + x233x288x1 + x149x288x1 + x177x288x1 + x205x288x1 + x269x288x1 + x80x288x1 + x64x288x1 
- x288x0x1
- x288x161x1 - x288x242x1 
= 0



x246x161x1 + x296x161x1 + x135x161x1 + x88x161x1 + x251x161x1 + x66x161x1 + x226x161x1 + x233x161x1 + x149x161x1 + x177x161x1 + x205x161x1 + x269x161x1 + x80x161x1 + x64x161x1 + x55x161x1 + x229x161x1 + x250x161x1 + x288x161x1 
- x161x0x1
- x161x242x1 
= 0



x246x242x1 + x296x242x1 + x135x242x1 + x88x242x1 + x251x242x1 + x66x242x1 + x226x242x1 + x233x242x1 + x149x242x1 + x177x242x1 + x205x242x1 + x269x242x1 + x80x242x1 + x64x242x1 + x55x242x1 + x229x242x1 + x250x242x1 + x288x242x1 + x161x242x1 
- x242x0x1

= 0
x246x242x2 + x204x242x2 + x58x242x2 + x135x242x2 + x187x242x2 + x88x242x2 + x99x242x2 + x3x242x2 + x254x242x2 + x215x242x2 + x16x242x2 + x133x242x2 + x48x242x2 + x80x242x2 + x30x242x2 
- x242x0x2

= 0


2y289 - x204x289x3 = 0
2y215 - x204x215x2 - x58x215x2 - x135x215x2 - x187x215x2 - x254x215x2 = 0
2y16 - x246x16x2 - x204x16x2 - x58x16x2 - x135x16x2 - x187x16x2 - x3x16x2 - x254x16x2 - x215x16x2 = 0
2y233 - x246x233x1 - x296x233x1 - x135x233x1 - x88x233x1 = 0
1y133 - x246x133x2 - x204x133x2 - x58x133x2 - x135x133x2 - x187x133x2 - x88x133x2 - x99x133x2 - x3x133x2 - x254x133x2 - x215x133x2 - x16x133x2 = 0
1y133 - x204x133x3 - x267x133x3 - x99x133x3 - x3x133x3 - x289x133x3 = 0
2y149 - x246x149x1 - x296x149x1 - x135x149x1 - x88x149x1 - x233x149x1 = 0
2y177 - x246x177x1 - x296x177x1 - x135x177x1 - x88x177x1 - x233x177x1 = 0
2y48 - x246x48x2 - x204x48x2 - x58x48x2 - x135x48x2 - x187x48x2 - x88x48x2 - x99x48x2 - x3x48x2 - x254x48x2 - x215x48x2 - x16x48x2 - x133x48x2 = 0
1y205 - x246x205x1 - x296x205x1 - x135x205x1 - x88x205x1 - x233x205x1 - x149x205x1 - x177x205x1 = 0
1y205 - x204x205x3 - x267x205x3 - x99x205x3 - x3x205x3 - x289x205x3 = 0
2y2 - x204x2x3 - x267x2x3 - x99x2x3 - x3x2x3 - x289x2x3 - x133x2x3 - x205x2x3 = 0
2y269 - x246x269x1 - x296x269x1 - x135x269x1 - x88x269x1 - x233x269x1 = 0
1y80 - x246x80x1 - x296x80x1 - x135x80x1 - x88x80x1 - x233x80x1 - x149x80x1 - x177x80x1 - x205x80x1 = 0
1y80 - x246x80x2 - x204x80x2 - x58x80x2 - x135x80x2 - x187x80x2 - x88x80x2 - x99x80x2 - x3x80x2 - x254x80x2 - x215x80x2 - x16x80x2 - x133x80x2 - x48x80x2 = 0
1y64 - x246x64x1 - x296x64x1 - x135x64x1 - x88x64x1 - x233x64x1 - x149x64x1 - x177x64x1 - x205x64x1 - x80x64x1 = 0
1y64 - x204x64x3 - x267x64x3 - x99x64x3 - x3x64x3 - x289x64x3 - x133x64x3 - x205x64x3 - x2x64x3 = 0
2y30 - x246x30x2 - x204x30x2 - x58x30x2 - x135x30x2 - x187x30x2 - x88x30x2 - x99x30x2 - x3x30x2 - x254x30x2 - x215x30x2 - x16x30x2 - x133x30x2 - x48x30x2 - x80x30x2 = 0
2y55 - x246x55x1 - x296x55x1 - x135x55x1 - x88x55x1 - x233x55x1 - x149x55x1 - x177x55x1 - x205x55x1 - x269x55x1 - x80x55x1 - x64x55x1 = 0
1y229 - x246x229x1 - x296x229x1 - x135x229x1 - x88x229x1 - x233x229x1 - x149x229x1 - x177x229x1 - x205x229x1 - x269x229x1 - x80x229x1 - x64x229x1 - x55x229x1 = 0
1y229 - x204x229x3 - x267x229x3 - x99x229x3 - x3x229x3 - x289x229x3 - x133x229x3 - x205x229x3 - x2x229x3 - x64x229x3 = 0
1y250 - x246x250x1 - x296x250x1 - x135x250x1 - x88x250x1 - x233x250x1 - x149x250x1 - x177x250x1 - x205x250x1 - x269x250x1 - x80x250x1 - x64x250x1 = 0
1y250 - x204x250x3 - x267x250x3 - x99x250x3 - x3x250x3 - x289x250x3 - x133x250x3 - x205x250x3 - x2x250x3 - x64x250x3 = 0
2y288 - x246x288x1 - x296x288x1 - x135x288x1 - x88x288x1 - x251x288x1 - x66x288x1 - x233x288x1 - x149x288x1 - x177x288x1 - x205x288x1 - x269x288x1 - x80x288x1 - x64x288x1 = 0
2y161 - x246x161x1 - x296x161x1 - x135x161x1 - x88x161x1 - x251x161x1 - x66x161x1 - x226x161x1 - x233x161x1 - x149x161x1 - x177x161x1 - x205x161x1 - x269x161x1 - x80x161x1 - x64x161x1 - x55x161x1 - x229x161x1 - x250x161x1 - x288x161x1 = 0
1y242 - x246x242x1 - x296x242x1 - x135x242x1 - x88x242x1 - x251x242x1 - x66x242x1 - x226x242x1 - x233x242x1 - x149x242x1 - x177x242x1 - x205x242x1 - x269x242x1 - x80x242x1 - x64x242x1 - x55x242x1 - x229x242x1 - x250x242x1 - x288x242x1 - x161x242x1 = 0
1y242 - x246x242x2 - x204x242x2 - x58x242x2 - x135x242x2 - x187x242x2 - x88x242x2 - x99x242x2 - x3x242x2 - x254x242x2 - x215x242x2 - x16x242x2 - x133x242x2 - x48x242x2 - x80x242x2 - x30x242x2 = 0

s246 - s16 + 7.737826z246z16z2 <= 6.37
s246 - s233 + 7.972477z246z233z1 <= 6.37
s246 - s133 + 7.976713z246z133z2 <= 6.37
s246 - s149 + 7.991847z246z149z1 <= 6.37
s246 - s177 + 7.988714z246z177z1 <= 6.37
s246 - s48 + 7.992380z246z48z2 <= 6.37
s246 - s205 + 7.998313z246z205z1 <= 6.37
s246 - s269 + 7.986497z246z269z1 <= 6.37
s246 - s80 + 8.009705z246z80z1 <= 6.37
s246 - s80 + 8.009705z246z80z2 <= 6.37
s246 - s64 + 8.013319z246z64z1 <= 6.37
s246 - s30 + 8.019335z246z30z2 <= 6.37
s246 - s55 + 8.024215z246z55z1 <= 6.37
s246 - s229 + 8.029194z246z229z1 <= 6.37
s246 - s250 + 8.026373z246z250z1 <= 6.37
s246 - s288 + 7.928044z246z288z1 <= 6.37
s246 - s161 + 7.941912z246z161z1 <= 6.37
s246 - s242 + 7.993656z246z242z1 <= 6.37
s246 - s242 + 7.993656z246z242z2 <= 6.37
s204 - s289 + 7.592458z204z289z3 <= 6.30
s204 - s215 + 7.597764z204z215z2 <= 6.30
s204 - s16 + 7.631896z204z16z2 <= 6.30
s204 - s133 + 7.865488z204z133z2 <= 6.30
s204 - s133 + 7.865488z204z133z3 <= 6.30
s204 - s48 + 7.880935z204z48z2 <= 6.30
s204 - s205 + 7.886397z204z205z3 <= 6.30
s204 - s2 + 7.890048z204z2z3 <= 6.30
s204 - s80 + 7.897949z204z80z2 <= 6.30
s204 - s64 + 7.901824z204z64z3 <= 6.30
s204 - s30 + 7.907391z204z30z2 <= 6.30
s204 - s229 + 7.917513z204z229z3 <= 6.30
s204 - s250 + 7.914926z204z250z3 <= 6.30
s204 - s242 + 7.886849z204z242z2 <= 6.30
s58 - s215 + 7.303750z58z215z2 <= 6.09
s58 - s16 + 7.287428z58z16z2 <= 6.09
s58 - s133 + 7.704528z58z133z2 <= 6.09
s58 - s48 + 7.714144z58z48z2 <= 6.09
s58 - s80 + 7.722807z58z80z2 <= 6.09
s58 - s30 + 7.726832z58z30z2 <= 6.09
s58 - s242 + 7.781697z58z242z2 <= 6.09
s296 - s233 + 8.375791z296z233z1 <= 6.80
s296 - s149 + 8.395103z296z149z1 <= 6.80
s296 - s177 + 8.391835z296z177z1 <= 6.80
s296 - s205 + 8.401551z296z205z1 <= 6.80
s296 - s269 + 8.389222z296z269z1 <= 6.80
s296 - s80 + 8.412844z296z80z1 <= 6.80
s296 - s64 + 8.416324z296z64z1 <= 6.80
s296 - s55 + 8.427387z296z55z1 <= 6.80
s296 - s229 + 8.432289z296z229z1 <= 6.80
s296 - s250 + 8.429353z296z250z1 <= 6.80
s296 - s288 + 8.330549z296z288z1 <= 6.80
s296 - s161 + 8.344440z296z161z1 <= 6.80
s296 - s242 + 8.396103z296z242z1 <= 6.80
s135 - s215 + 7.655453z135z215z2 <= 6.35
s135 - s16 + 7.691360z135z16z2 <= 6.35
s135 - s233 + 7.908060z135z233z1 <= 6.35
s135 - s133 + 7.912018z135z133z2 <= 6.35
s135 - s149 + 7.927385z135z149z1 <= 6.35
s135 - s177 + 7.924151z135z177z1 <= 6.35
s135 - s48 + 7.927730z135z48z2 <= 6.35
s135 - s205 + 7.933836z135z205z1 <= 6.35
s135 - s269 + 7.921753z135z269z1 <= 6.35
s135 - s80 + 7.945154z135z80z1 <= 6.35
s135 - s80 + 7.945154z135z80z2 <= 6.35
s135 - s64 + 7.948682z135z64z1 <= 6.35
s135 - s30 + 7.954870z135z30z2 <= 6.35
s135 - s55 + 7.959689z135z55z1 <= 6.35
s135 - s229 + 7.964614z135z229z1 <= 6.35
s135 - s250 + 7.961721z135z250z1 <= 6.35
s135 - s288 + 7.864594z135z288z1 <= 6.35
s135 - s161 + 7.878571z135z161z1 <= 6.35
s135 - s242 + 7.929874z135z242z1 <= 6.35
s135 - s242 + 7.929874z135z242z2 <= 6.35
s267 - s133 + 8.535082z267z133z3 <= 7.00
s267 - s205 + 8.555988z267z205z3 <= 7.00
s267 - s2 + 8.559623z267z2z3 <= 7.00
s267 - s64 + 8.571400z267z64z3 <= 7.00
s267 - s229 + 8.587089z267z229z3 <= 7.00
s267 - s250 + 8.584503z267z250z3 <= 7.00
s187 - s215 + 7.471463z187z215z2 <= 6.41
s187 - s16 + 7.511980z187z16z2 <= 6.41
s187 - s133 + 7.841741z187z133z2 <= 6.41
s187 - s48 + 7.851915z187z48z2 <= 6.41
s187 - s80 + 7.861614z187z80z2 <= 6.41
s187 - s30 + 7.866460z187z30z2 <= 6.41
s187 - s242 + 7.920250z187z242z2 <= 6.41
s88 - s233 + 8.570454z88z233z1 <= 7.13
s88 - s133 + 8.594457z88z133z2 <= 7.13
s88 - s149 + 8.589882z88z149z1 <= 7.13
s88 - s177 + 8.593161z88z177z1 <= 7.13
s88 - s48 + 8.603190z88z48z2 <= 7.13
s88 - s205 + 8.596369z88z205z1 <= 7.13
s88 - s269 + 8.613656z88z269z1 <= 7.13
s88 - s80 + 8.610888z88z80z1 <= 7.13
s88 - s80 + 8.610888z88z80z2 <= 7.13
s88 - s64 + 8.620645z88z64z1 <= 7.13
s88 - s30 + 8.614437z88z30z2 <= 7.13
s88 - s55 + 8.622365z88z55z1 <= 7.13
s88 - s229 + 8.630344z88z229z1 <= 7.13
s88 - s250 + 8.633536z88z250z1 <= 7.13
s88 - s288 + 8.634684z88z288z1 <= 7.13
s88 - s161 + 8.649329z88z161z1 <= 7.13
s88 - s242 + 8.681856z88z242z1 <= 7.13
s88 - s242 + 8.681856z88z242z2 <= 7.13
s99 - s133 + 8.318633z99z133z2 <= 6.77
s99 - s133 + 8.318633z99z133z3 <= 6.77
s99 - s48 + 8.335336z99z48z2 <= 6.77
s99 - s205 + 8.344046z99z205z3 <= 6.77
s99 - s2 + 8.345858z99z2z3 <= 6.77
s99 - s80 + 8.354335z99z80z2 <= 6.77
s99 - s64 + 8.356417z99z64z3 <= 6.77
s99 - s30 + 8.365117z99z30z2 <= 6.77
s99 - s229 + 8.373252z99z229z3 <= 6.77
s99 - s250 + 8.369124z99z250z3 <= 6.77
s99 - s242 + 8.321693z99z242z2 <= 6.77
s251 - s288 + 8.856716z251z288z1 <= 7.41
s251 - s161 + 8.871350z251z161z1 <= 7.41
s251 - s242 + 8.903963z251z242z1 <= 7.41
s3 - s16 + 7.781404z3z16z2 <= 6.71
s3 - s133 + 8.127647z3z133z2 <= 6.71
s3 - s133 + 8.127647z3z133z3 <= 6.71
s3 - s48 + 8.136661z3z48z2 <= 6.71
s3 - s205 + 8.130393z3z205z3 <= 6.71
s3 - s2 + 8.139812z3z2z3 <= 6.71
s3 - s80 + 8.144827z3z80z2 <= 6.71
s3 - s64 + 8.154340z3z64z3 <= 6.71
s3 - s30 + 8.148727z3z30z2 <= 6.71
s3 - s229 + 8.164385z3z229z3 <= 6.71
s3 - s250 + 8.167297z3z250z3 <= 6.71
s3 - s242 + 8.214782z3z242z2 <= 6.71
s66 - s288 + 8.902709z66z288z1 <= 7.45
s66 - s161 + 8.917274z66z161z1 <= 7.45
s66 - s242 + 8.948822z66z242z1 <= 7.45
s226 - s161 + 9.051351z226z161z1 <= 7.60
s226 - s242 + 9.082252z226z242z1 <= 7.60
s254 - s215 + 7.673333z254z215z2 <= 6.66
s254 - s16 + 7.713748z254z16z2 <= 6.66
s254 - s133 + 8.079788z254z133z2 <= 6.66
s254 - s48 + 8.087967z254z48z2 <= 6.66
s254 - s80 + 8.095022z254z80z2 <= 6.66
s254 - s30 + 8.098228z254z30z2 <= 6.66
s254 - s242 + 8.172293z254z242z2 <= 6.66
s289 - s133 + 9.074969z289z133z3 <= 7.67
s289 - s205 + 9.075846z289z205z3 <= 7.67
s289 - s2 + 9.085746z289z2z3 <= 7.67
s289 - s64 + 9.100401z289z64z3 <= 7.67
s289 - s229 + 9.109798z289z229z3 <= 7.67
s289 - s250 + 9.113220z289z250z3 <= 7.67
s215 - s16 + 8.756960z215z16z2 <= 7.70
s215 - s133 + 9.107322z215z133z2 <= 7.70
s215 - s48 + 9.115317z215z48z2 <= 7.70
s215 - s80 + 9.122164z215z80z2 <= 7.70
s215 - s30 + 9.125257z215z30z2 <= 7.70
s215 - s242 + 9.201420z215z242z2 <= 7.70
s16 - s133 + 9.357214z16z133z2 <= 7.91
s16 - s48 + 9.363529z16z48z2 <= 7.91
s16 - s80 + 9.368063z16z80z2 <= 7.91
s16 - s30 + 9.369661z16z30z2 <= 7.91
s16 - s242 + 9.459747z16z242z2 <= 7.91
s233 - s149 + 9.660000z233z149z1 <= 8.64
s233 - s177 + 9.664038z233z177z1 <= 8.64
s233 - s205 + 9.666667z233z205z1 <= 8.64
s233 - s269 + 9.705660z233z269z1 <= 8.64
s233 - s80 + 9.680552z233z80z1 <= 8.64
s233 - s64 + 9.690772z233z64z1 <= 8.64
s233 - s55 + 9.693334z233z55z1 <= 8.64
s233 - s229 + 9.700370z233z229z1 <= 8.64
s233 - s250 + 9.703246z233z250z1 <= 8.64
s233 - s288 + 9.841770z233z288z1 <= 8.64
s233 - s161 + 9.847096z233z161z1 <= 8.64
s233 - s242 + 9.830905z233z242z1 <= 8.64
s133 - s48 + 9.698856z133z48z2 <= 8.68
s133 - s2 + 9.713333z133z2z3 <= 8.68
s133 - s80 + 9.722688z133z80z2 <= 8.68
s133 - s64 + 9.718873z133z64z3 <= 8.68
s133 - s30 + 9.737350z133z30z2 <= 8.68
s133 - s229 + 9.737350z133z229z3 <= 8.68
s133 - s250 + 9.730772z133z250z3 <= 8.68
s133 - s242 + 9.829071z133z242z2 <= 8.68
s149 - s205 + 9.706667z149z205z1 <= 8.70
s149 - s80 + 9.721082z149z80z1 <= 8.70
s149 - s64 + 9.733334z149z64z1 <= 8.70
s149 - s55 + 9.733334z149z55z1 <= 8.70
s149 - s229 + 9.740552z149z229z1 <= 8.70
s149 - s250 + 9.744721z149z250z1 <= 8.70
s149 - s288 + 9.905373z149z288z1 <= 8.70
s149 - s161 + 9.909337z149z161z1 <= 8.70
s149 - s242 + 9.887735z149z242z1 <= 8.70
s177 - s205 + 9.714907z177z205z1 <= 8.70
s177 - s80 + 9.721082z177z80z1 <= 8.70
s177 - s64 + 9.727488z177z64z1 <= 8.70
s177 - s55 + 9.735901z177z55z1 <= 8.70
s177 - s229 + 9.740552z177z229z1 <= 8.70
s177 - s250 + 9.740552z177z250z1 <= 8.70
s177 - s288 + 9.892411z177z288z1 <= 8.70
s177 - s161 + 9.896186z177z161z1 <= 8.70
s177 - s242 + 9.874483z177z242z1 <= 8.70
s48 - s80 + 9.744038z48z80z2 <= 8.72
s48 - s30 + 9.758873z48z30z2 <= 8.72
s48 - s242 + 9.880555z48z242z2 <= 8.72
s205 - s2 + 9.734907z205z2z3 <= 8.72
s205 - s80 + 9.734907z205z80z1 <= 8.72
s205 - s64 + 9.748284z205z64z1 <= 8.72
s205 - s64 + 9.748284z205z64z3 <= 8.72
s205 - s55 + 9.746667z205z55z1 <= 8.72
s205 - s229 + 9.753994z205z229z1 <= 8.72
s205 - s229 + 9.753994z205z229z3 <= 8.72
s205 - s250 + 9.758873z205z250z1 <= 8.72
s205 - s250 + 9.758873z205z250z3 <= 8.72
s205 - s288 + 9.926990z205z288z1 <= 8.72
s205 - s161 + 9.930502z205z161z1 <= 8.72
s205 - s242 + 9.907143z205z242z1 <= 8.72
s2 - s64 + 9.754907z2z64z3 <= 8.74
s2 - s229 + 9.767488z2z229z3 <= 8.74
s2 - s250 + 9.767488z2z250z3 <= 8.74
s269 - s55 + 9.805658z269z55z1 <= 8.74
s269 - s229 + 9.802893z269z229z1 <= 8.74
s269 - s250 + 9.792068z269z250z1 <= 8.74
s269 - s288 + 9.889814z269z288z1 <= 8.74
s269 - s161 + 9.892023z269z161z1 <= 8.74
s269 - s242 + 9.867367z269z242z1 <= 8.74
s80 - s64 + 9.774907z80z64z1 <= 8.76
s80 - s30 + 9.774907z80z30z2 <= 8.76
s80 - s55 + 9.774907z80z55z1 <= 8.76
s80 - s229 + 9.780001z80z229z1 <= 8.76
s80 - s250 + 9.784038z80z250z1 <= 8.76
s80 - s288 + 9.964505z80z288z1 <= 8.76
s80 - s161 + 9.966990z80z161z1 <= 8.76
s80 - s242 + 9.940001z80z242z1 <= 8.76
s80 - s242 + 9.940001z80z242z2 <= 8.76
s64 - s55 + 9.801082z64z55z1 <= 8.78
s64 - s229 + 9.798856z64z229z1 <= 8.78
s64 - s229 + 9.798856z64z229z3 <= 8.78
s64 - s250 + 9.793333z64z250z1 <= 8.78
s64 - s250 + 9.793333z64z250z3 <= 8.78
s64 - s288 + 9.974365z64z288z1 <= 8.78
s64 - s161 + 9.976072z64z161z1 <= 8.78
s64 - s242 + 9.946799z64z242z1 <= 8.78
s30 - s242 + 9.983448z30z242z2 <= 8.79
s55 - s229 + 9.819428z55z229z1 <= 8.81
s55 - s161 + 10.027154z55z161z1 <= 8.81
s55 - s242 + 9.997143z55z242z1 <= 8.81
s229 - s161 + 10.043020z229z161z1 <= 8.83
s229 - s242 + 10.011107z229z242z1 <= 8.83
s250 - s161 + 10.030555z250z161z1 <= 8.83
s250 - s242 + 9.997862z250z242z1 <= 8.83
s288 - s161 + 10.034907z288z161z1 <= 9.02
s288 - s242 + 10.087988z288z242z1 <= 9.02
s161 - s242 + 10.156960z161z242z1 <= 9.10

x246x16x2 - 2z246z16z2 <= 0
x246x233x1 - 2z246z233z1 <= 0
x246x133x2 - 1z246z133z2 <= 0
x246x149x1 - 2z246z149z1 <= 0
x246x177x1 - 2z246z177z1 <= 0
x246x48x2 - 2z246z48z2 <= 0
x246x205x1 - 1z246z205z1 <= 0
x246x269x1 - 2z246z269z1 <= 0
x246x80x1 - 1z246z80z1 <= 0
x246x80x2 - 1z246z80z2 <= 0
x246x64x1 - 1z246z64z1 <= 0
x246x30x2 - 2z246z30z2 <= 0
x246x55x1 - 2z246z55z1 <= 0
x246x229x1 - 1z246z229z1 <= 0
x246x250x1 - 1z246z250z1 <= 0
x246x288x1 - 2z246z288z1 <= 0
x246x161x1 - 2z246z161z1 <= 0
x246x242x1 - 1z246z242z1 <= 0
x246x242x2 - 1z246z242z2 <= 0
x204x289x3 - 2z204z289z3 <= 0
x204x215x2 - 2z204z215z2 <= 0
x204x16x2 - 2z204z16z2 <= 0
x204x133x2 - 1z204z133z2 <= 0
x204x133x3 - 1z204z133z3 <= 0
x204x48x2 - 2z204z48z2 <= 0
x204x205x3 - 1z204z205z3 <= 0
x204x2x3 - 2z204z2z3 <= 0
x204x80x2 - 1z204z80z2 <= 0
x204x64x3 - 1z204z64z3 <= 0
x204x30x2 - 2z204z30z2 <= 0
x204x229x3 - 1z204z229z3 <= 0
x204x250x3 - 1z204z250z3 <= 0
x204x242x2 - 1z204z242z2 <= 0
x58x215x2 - 2z58z215z2 <= 0
x58x16x2 - 2z58z16z2 <= 0
x58x133x2 - 1z58z133z2 <= 0
x58x48x2 - 2z58z48z2 <= 0
x58x80x2 - 1z58z80z2 <= 0
x58x30x2 - 2z58z30z2 <= 0
x58x242x2 - 1z58z242z2 <= 0
x296x233x1 - 2z296z233z1 <= 0
x296x149x1 - 2z296z149z1 <= 0
x296x177x1 - 2z296z177z1 <= 0
x296x205x1 - 1z296z205z1 <= 0
x296x269x1 - 2z296z269z1 <= 0
x296x80x1 - 1z296z80z1 <= 0
x296x64x1 - 1z296z64z1 <= 0
x296x55x1 - 2z296z55z1 <= 0
x296x229x1 - 1z296z229z1 <= 0
x296x250x1 - 1z296z250z1 <= 0
x296x288x1 - 2z296z288z1 <= 0
x296x161x1 - 2z296z161z1 <= 0
x296x242x1 - 1z296z242z1 <= 0
x135x215x2 - 2z135z215z2 <= 0
x135x16x2 - 2z135z16z2 <= 0
x135x233x1 - 2z135z233z1 <= 0
x135x133x2 - 1z135z133z2 <= 0
x135x149x1 - 2z135z149z1 <= 0
x135x177x1 - 2z135z177z1 <= 0
x135x48x2 - 2z135z48z2 <= 0
x135x205x1 - 1z135z205z1 <= 0
x135x269x1 - 2z135z269z1 <= 0
x135x80x1 - 1z135z80z1 <= 0
x135x80x2 - 1z135z80z2 <= 0
x135x64x1 - 1z135z64z1 <= 0
x135x30x2 - 2z135z30z2 <= 0
x135x55x1 - 2z135z55z1 <= 0
x135x229x1 - 1z135z229z1 <= 0
x135x250x1 - 1z135z250z1 <= 0
x135x288x1 - 2z135z288z1 <= 0
x135x161x1 - 2z135z161z1 <= 0
x135x242x1 - 1z135z242z1 <= 0
x135x242x2 - 1z135z242z2 <= 0
x267x133x3 - 1z267z133z3 <= 0
x267x205x3 - 1z267z205z3 <= 0
x267x2x3 - 2z267z2z3 <= 0
x267x64x3 - 1z267z64z3 <= 0
x267x229x3 - 1z267z229z3 <= 0
x267x250x3 - 1z267z250z3 <= 0
x187x215x2 - 2z187z215z2 <= 0
x187x16x2 - 2z187z16z2 <= 0
x187x133x2 - 1z187z133z2 <= 0
x187x48x2 - 2z187z48z2 <= 0
x187x80x2 - 1z187z80z2 <= 0
x187x30x2 - 2z187z30z2 <= 0
x187x242x2 - 1z187z242z2 <= 0
x88x233x1 - 2z88z233z1 <= 0
x88x133x2 - 1z88z133z2 <= 0
x88x149x1 - 2z88z149z1 <= 0
x88x177x1 - 2z88z177z1 <= 0
x88x48x2 - 2z88z48z2 <= 0
x88x205x1 - 1z88z205z1 <= 0
x88x269x1 - 2z88z269z1 <= 0
x88x80x1 - 1z88z80z1 <= 0
x88x80x2 - 1z88z80z2 <= 0
x88x64x1 - 1z88z64z1 <= 0
x88x30x2 - 2z88z30z2 <= 0
x88x55x1 - 2z88z55z1 <= 0
x88x229x1 - 1z88z229z1 <= 0
x88x250x1 - 1z88z250z1 <= 0
x88x288x1 - 2z88z288z1 <= 0
x88x161x1 - 2z88z161z1 <= 0
x88x242x1 - 1z88z242z1 <= 0
x88x242x2 - 1z88z242z2 <= 0
x99x133x2 - 1z99z133z2 <= 0
x99x133x3 - 1z99z133z3 <= 0
x99x48x2 - 2z99z48z2 <= 0
x99x205x3 - 1z99z205z3 <= 0
x99x2x3 - 2z99z2z3 <= 0
x99x80x2 - 1z99z80z2 <= 0
x99x64x3 - 1z99z64z3 <= 0
x99x30x2 - 2z99z30z2 <= 0
x99x229x3 - 1z99z229z3 <= 0
x99x250x3 - 1z99z250z3 <= 0
x99x242x2 - 1z99z242z2 <= 0
x251x288x1 - 2z251z288z1 <= 0
x251x161x1 - 2z251z161z1 <= 0
x251x242x1 - 1z251z242z1 <= 0
x3x16x2 - 2z3z16z2 <= 0
x3x133x2 - 1z3z133z2 <= 0
x3x133x3 - 1z3z133z3 <= 0
x3x48x2 - 2z3z48z2 <= 0
x3x205x3 - 1z3z205z3 <= 0
x3x2x3 - 2z3z2z3 <= 0
x3x80x2 - 1z3z80z2 <= 0
x3x64x3 - 1z3z64z3 <= 0
x3x30x2 - 2z3z30z2 <= 0
x3x229x3 - 1z3z229z3 <= 0
x3x250x3 - 1z3z250z3 <= 0
x3x242x2 - 1z3z242z2 <= 0
x66x288x1 - 2z66z288z1 <= 0
x66x161x1 - 2z66z161z1 <= 0
x66x242x1 - 1z66z242z1 <= 0
x226x161x1 - 2z226z161z1 <= 0
x226x242x1 - 1z226z242z1 <= 0
x254x215x2 - 2z254z215z2 <= 0
x254x16x2 - 2z254z16z2 <= 0
x254x133x2 - 1z254z133z2 <= 0
x254x48x2 - 2z254z48z2 <= 0
x254x80x2 - 1z254z80z2 <= 0
x254x30x2 - 2z254z30z2 <= 0
x254x242x2 - 1z254z242z2 <= 0
x289x133x3 - 1z289z133z3 <= 0
x289x205x3 - 1z289z205z3 <= 0
x289x2x3 - 2z289z2z3 <= 0
x289x64x3 - 1z289z64z3 <= 0
x289x229x3 - 1z289z229z3 <= 0
x289x250x3 - 1z289z250z3 <= 0
x289x0x3 <= 2
x215x16x2 - 2z215z16z2 <= 0
x215x133x2 - 1z215z133z2 <= 0
x215x48x2 - 2z215z48z2 <= 0
x215x80x2 - 1z215z80z2 <= 0
x215x30x2 - 2z215z30z2 <= 0
x215x242x2 - 1z215z242z2 <= 0
x215x0x2 <= 2
x16x133x2 - 1z16z133z2 <= 0
x16x48x2 - 2z16z48z2 <= 0
x16x80x2 - 1z16z80z2 <= 0
x16x30x2 - 2z16z30z2 <= 0
x16x242x2 - 1z16z242z2 <= 0
x16x0x2 <= 2
x233x149x1 - 2z233z149z1 <= 0
x233x177x1 - 2z233z177z1 <= 0
x233x205x1 - 1z233z205z1 <= 0
x233x269x1 - 2z233z269z1 <= 0
x233x80x1 - 1z233z80z1 <= 0
x233x64x1 - 1z233z64z1 <= 0
x233x55x1 - 2z233z55z1 <= 0
x233x229x1 - 1z233z229z1 <= 0
x233x250x1 - 1z233z250z1 <= 0
x233x288x1 - 2z233z288z1 <= 0
x233x161x1 - 2z233z161z1 <= 0
x233x242x1 - 1z233z242z1 <= 0
x233x0x1 <= 2
x133x48x2 - 2z133z48z2 <= 0
x133x2x3 - 2z133z2z3 <= 0
x133x80x2 - 1z133z80z2 <= 0
x133x64x3 - 1z133z64z3 <= 0
x133x30x2 - 2z133z30z2 <= 0
x133x229x3 - 1z133z229z3 <= 0
x133x250x3 - 1z133z250z3 <= 0
x133x242x2 - 1z133z242z2 <= 0
x133x0x2 <= 1
x133x0x3 <= 1
x149x205x1 - 1z149z205z1 <= 0
x149x80x1 - 1z149z80z1 <= 0
x149x64x1 - 1z149z64z1 <= 0
x149x55x1 - 2z149z55z1 <= 0
x149x229x1 - 1z149z229z1 <= 0
x149x250x1 - 1z149z250z1 <= 0
x149x288x1 - 2z149z288z1 <= 0
x149x161x1 - 2z149z161z1 <= 0
x149x242x1 - 1z149z242z1 <= 0
x149x0x1 <= 2
x177x205x1 - 1z177z205z1 <= 0
x177x80x1 - 1z177z80z1 <= 0
x177x64x1 - 1z177z64z1 <= 0
x177x55x1 - 2z177z55z1 <= 0
x177x229x1 - 1z177z229z1 <= 0
x177x250x1 - 1z177z250z1 <= 0
x177x288x1 - 2z177z288z1 <= 0
x177x161x1 - 2z177z161z1 <= 0
x177x242x1 - 1z177z242z1 <= 0
x177x0x1 <= 2
x48x80x2 - 1z48z80z2 <= 0
x48x30x2 - 2z48z30z2 <= 0
x48x242x2 - 1z48z242z2 <= 0
x48x0x2 <= 2
x205x2x3 - 2z205z2z3 <= 0
x205x80x1 - 1z205z80z1 <= 0
x205x64x1 - 1z205z64z1 <= 0
x205x64x3 - 1z205z64z3 <= 0
x205x55x1 - 2z205z55z1 <= 0
x205x229x1 - 1z205z229z1 <= 0
x205x229x3 - 1z205z229z3 <= 0
x205x250x1 - 1z205z250z1 <= 0
x205x250x3 - 1z205z250z3 <= 0
x205x288x1 - 2z205z288z1 <= 0
x205x161x1 - 2z205z161z1 <= 0
x205x242x1 - 1z205z242z1 <= 0
x205x0x1 <= 1
x205x0x3 <= 1
x2x64x3 - 1z2z64z3 <= 0
x2x229x3 - 1z2z229z3 <= 0
x2x250x3 - 1z2z250z3 <= 0
x2x0x3 <= 2
x269x55x1 - 2z269z55z1 <= 0
x269x229x1 - 1z269z229z1 <= 0
x269x250x1 - 1z269z250z1 <= 0
x269x288x1 - 2z269z288z1 <= 0
x269x161x1 - 2z269z161z1 <= 0
x269x242x1 - 1z269z242z1 <= 0
x269x0x1 <= 2
x80x64x1 - 1z80z64z1 <= 0
x80x30x2 - 2z80z30z2 <= 0
x80x55x1 - 2z80z55z1 <= 0
x80x229x1 - 1z80z229z1 <= 0
x80x250x1 - 1z80z250z1 <= 0
x80x288x1 - 2z80z288z1 <= 0
x80x161x1 - 2z80z161z1 <= 0
x80x242x1 - 1z80z242z1 <= 0
x80x242x2 - 1z80z242z2 <= 0
x80x0x1 <= 1
x80x0x2 <= 1
x64x55x1 - 2z64z55z1 <= 0
x64x229x1 - 1z64z229z1 <= 0
x64x229x3 - 1z64z229z3 <= 0
x64x250x1 - 1z64z250z1 <= 0
x64x250x3 - 1z64z250z3 <= 0
x64x288x1 - 2z64z288z1 <= 0
x64x161x1 - 2z64z161z1 <= 0
x64x242x1 - 1z64z242z1 <= 0
x64x0x1 <= 1
x64x0x3 <= 1
x30x242x2 - 1z30z242z2 <= 0
x30x0x2 <= 2
x55x229x1 - 1z55z229z1 <= 0
x55x161x1 - 2z55z161z1 <= 0
x55x242x1 - 1z55z242z1 <= 0
x55x0x1 <= 2
x229x161x1 - 2z229z161z1 <= 0
x229x242x1 - 1z229z242z1 <= 0
x229x0x1 <= 1
x229x0x3 <= 1
x250x161x1 - 2z250z161z1 <= 0
x250x242x1 - 1z250z242z1 <= 0
x250x0x1 <= 1
x250x0x3 <= 1
x288x161x1 - 2z288z161z1 <= 0
x288x242x1 - 1z288z242z1 <= 0
x288x0x1 <= 2
x161x242x1 - 1z161z242z1 <= 0
x161x0x1 <= 2
x242x0x1 <= 1
x242x0x2 <= 1

Bounds
s246 = 6.366103
s204 = 6.297764
s58 = 6.090000
s296 = 6.795178
s135 = 6.348497
s267 = 7.001332
s187 = 6.410000
s88 = 7.130656
s99 = 6.768199
s251 = 7.410000
s3 = 6.708071
s66 = 7.447712
s226 = 7.601511
s254 = 6.660000
s264 = 7.669428
6.670000 <= s289 <= 7.670000
6.700000 <= s215 <= 7.700000
6.910000 <= s16 <= 7.910000
7.640000 <= s233 <= 8.640000
7.680000 <= s133 <= 8.680000
7.700000 <= s149 <= 8.700000
7.700000 <= s177 <= 8.700000
7.720000 <= s48 <= 8.720000
7.720000 <= s205 <= 8.720000
7.740000 <= s2 <= 8.740000
7.740000 <= s269 <= 8.740000
7.760000 <= s80 <= 8.760000
7.780000 <= s64 <= 8.780000
7.790000 <= s30 <= 8.790000
7.810000 <= s55 <= 8.810000
7.830000 <= s229 <= 8.830000
7.830000 <= s250 <= 8.830000
8.020000 <= s288 <= 9.020000
8.100000 <= s161 <= 9.100000
8.160000 <= s242 <= 9.160000

General
x246x16x2 x246x233x1 x246x133x2 x246x149x1 x246x177x1 x246x48x2 x246x205x1 x246x269x1 x246x80x1 x246x80x2 x246x64x1 x246x30x2 x246x55x1 x246x229x1 x246x250x1 x246x288x1 x246x161x1 x246x242x1 x246x242x2 
x204x289x3 x204x215x2 x204x16x2 x204x133x2 x204x133x3 x204x48x2 x204x205x3 x204x2x3 x204x80x2 x204x64x3 x204x30x2 x204x229x3 x204x250x3 x204x242x2 
x58x215x2 x58x16x2 x58x133x2 x58x48x2 x58x80x2 x58x30x2 x58x242x2 
x296x233x1 x296x149x1 x296x177x1 x296x205x1 x296x269x1 x296x80x1 x296x64x1 x296x55x1 x296x229x1 x296x250x1 x296x288x1 x296x161x1 x296x242x1 
x135x215x2 x135x16x2 x135x233x1 x135x133x2 x135x149x1 x135x177x1 x135x48x2 x135x205x1 x135x269x1 x135x80x1 x135x80x2 x135x64x1 x135x30x2 x135x55x1 x135x229x1 x135x250x1 x135x288x1 x135x161x1 x135x242x1 x135x242x2 
x267x133x3 x267x205x3 x267x2x3 x267x64x3 x267x229x3 x267x250x3 
x187x215x2 x187x16x2 x187x133x2 x187x48x2 x187x80x2 x187x30x2 x187x242x2 
x88x233x1 x88x133x2 x88x149x1 x88x177x1 x88x48x2 x88x205x1 x88x269x1 x88x80x1 x88x80x2 x88x64x1 x88x30x2 x88x55x1 x88x229x1 x88x250x1 x88x288x1 x88x161x1 x88x242x1 x88x242x2 
x99x133x2 x99x133x3 x99x48x2 x99x205x3 x99x2x3 x99x80x2 x99x64x3 x99x30x2 x99x229x3 x99x250x3 x99x242x2 
x251x288x1 x251x161x1 x251x242x1 
x3x16x2 x3x133x2 x3x133x3 x3x48x2 x3x205x3 x3x2x3 x3x80x2 x3x64x3 x3x30x2 x3x229x3 x3x250x3 x3x242x2 
x66x288x1 x66x161x1 x66x242x1 
x226x161x1 x226x242x1 
x254x215x2 x254x16x2 x254x133x2 x254x48x2 x254x80x2 x254x30x2 x254x242x2 

x289x133x3 x289x205x3 x289x2x3 x289x64x3 x289x229x3 x289x250x3 x289x0x3 
x215x16x2 x215x133x2 x215x48x2 x215x80x2 x215x30x2 x215x242x2 x215x0x2 
x16x133x2 x16x48x2 x16x80x2 x16x30x2 x16x242x2 x16x0x2 
x233x149x1 x233x177x1 x233x205x1 x233x269x1 x233x80x1 x233x64x1 x233x55x1 x233x229x1 x233x250x1 x233x288x1 x233x161x1 x233x242x1 x233x0x1 
x133x48x2 x133x2x3 x133x80x2 x133x64x3 x133x30x2 x133x229x3 x133x250x3 x133x242x2 x133x0x2 x133x0x3 
x149x205x1 x149x80x1 x149x64x1 x149x55x1 x149x229x1 x149x250x1 x149x288x1 x149x161x1 x149x242x1 x149x0x1 
x177x205x1 x177x80x1 x177x64x1 x177x55x1 x177x229x1 x177x250x1 x177x288x1 x177x161x1 x177x242x1 x177x0x1 
x48x80x2 x48x30x2 x48x242x2 x48x0x2 
x205x2x3 x205x80x1 x205x64x1 x205x64x3 x205x55x1 x205x229x1 x205x229x3 x205x250x1 x205x250x3 x205x288x1 x205x161x1 x205x242x1 x205x0x1 x205x0x3 
x2x64x3 x2x229x3 x2x250x3 x2x0x3 
x269x55x1 x269x229x1 x269x250x1 x269x288x1 x269x161x1 x269x242x1 x269x0x1 
x80x64x1 x80x30x2 x80x55x1 x80x229x1 x80x250x1 x80x288x1 x80x161x1 x80x242x1 x80x242x2 x80x0x1 x80x0x2 
x64x55x1 x64x229x1 x64x229x3 x64x250x1 x64x250x3 x64x288x1 x64x161x1 x64x242x1 x64x0x1 x64x0x3 
x30x242x2 x30x0x2 
x55x229x1 x55x161x1 x55x242x1 x55x0x1 
x229x161x1 x229x242x1 x229x0x1 x229x0x3 
x250x161x1 x250x242x1 x250x0x1 x250x0x3 
x288x161x1 x288x242x1 x288x0x1 
x161x242x1 x161x0x1 
x242x0x1 x242x0x2 

Binaries
y289 y215 y16 y233 y133 y149 y177 y48 y205 y2 y269 y80 y64 y30 y55 y229 y250 y288 y161 y242 
z246z16z2 z246z233z1 z246z133z2 z246z149z1 z246z177z1 z246z48z2 z246z205z1 z246z269z1 z246z80z1 z246z80z2 z246z64z1 z246z30z2 z246z55z1 z246z229z1 z246z250z1 z246z288z1 z246z161z1 z246z242z1 z246z242z2 
z204z289z3 z204z215z2 z204z16z2 z204z133z2 z204z133z3 z204z48z2 z204z205z3 z204z2z3 z204z80z2 z204z64z3 z204z30z2 z204z229z3 z204z250z3 z204z242z2 
z58z215z2 z58z16z2 z58z133z2 z58z48z2 z58z80z2 z58z30z2 z58z242z2 
z296z233z1 z296z149z1 z296z177z1 z296z205z1 z296z269z1 z296z80z1 z296z64z1 z296z55z1 z296z229z1 z296z250z1 z296z288z1 z296z161z1 z296z242z1 
z135z215z2 z135z16z2 z135z233z1 z135z133z2 z135z149z1 z135z177z1 z135z48z2 z135z205z1 z135z269z1 z135z80z1 z135z80z2 z135z64z1 z135z30z2 z135z55z1 z135z229z1 z135z250z1 z135z288z1 z135z161z1 z135z242z1 z135z242z2 
z267z133z3 z267z205z3 z267z2z3 z267z64z3 z267z229z3 z267z250z3 
z187z215z2 z187z16z2 z187z133z2 z187z48z2 z187z80z2 z187z30z2 z187z242z2 
z88z233z1 z88z133z2 z88z149z1 z88z177z1 z88z48z2 z88z205z1 z88z269z1 z88z80z1 z88z80z2 z88z64z1 z88z30z2 z88z55z1 z88z229z1 z88z250z1 z88z288z1 z88z161z1 z88z242z1 z88z242z2 
z99z133z2 z99z133z3 z99z48z2 z99z205z3 z99z2z3 z99z80z2 z99z64z3 z99z30z2 z99z229z3 z99z250z3 z99z242z2 
z251z288z1 z251z161z1 z251z242z1 
z3z16z2 z3z133z2 z3z133z3 z3z48z2 z3z205z3 z3z2z3 z3z80z2 z3z64z3 z3z30z2 z3z229z3 z3z250z3 z3z242z2 
z66z288z1 z66z161z1 z66z242z1 
z226z161z1 z226z242z1 
z254z215z2 z254z16z2 z254z133z2 z254z48z2 z254z80z2 z254z30z2 z254z242z2 

z289z133z3 z289z205z3 z289z2z3 z289z64z3 z289z229z3 z289z250z3 
z215z16z2 z215z133z2 z215z48z2 z215z80z2 z215z30z2 z215z242z2 
z16z133z2 z16z48z2 z16z80z2 z16z30z2 z16z242z2 
z233z149z1 z233z177z1 z233z205z1 z233z269z1 z233z80z1 z233z64z1 z233z55z1 z233z229z1 z233z250z1 z233z288z1 z233z161z1 z233z242z1 
z133z48z2 z133z2z3 z133z80z2 z133z64z3 z133z30z2 z133z229z3 z133z250z3 z133z242z2 
z149z205z1 z149z80z1 z149z64z1 z149z55z1 z149z229z1 z149z250z1 z149z288z1 z149z161z1 z149z242z1 
z177z205z1 z177z80z1 z177z64z1 z177z55z1 z177z229z1 z177z250z1 z177z288z1 z177z161z1 z177z242z1 
z48z80z2 z48z30z2 z48z242z2 
z205z2z3 z205z80z1 z205z64z1 z205z64z3 z205z55z1 z205z229z1 z205z229z3 z205z250z1 z205z250z3 z205z288z1 z205z161z1 z205z242z1 
z2z64z3 z2z229z3 z2z250z3 
z269z55z1 z269z229z1 z269z250z1 z269z288z1 z269z161z1 z269z242z1 
z80z64z1 z80z30z2 z80z55z1 z80z229z1 z80z250z1 z80z288z1 z80z161z1 z80z242z1 z80z242z2 
z64z55z1 z64z229z1 z64z229z3 z64z250z1 z64z250z3 z64z288z1 z64z161z1 z64z242z1 
z30z242z2 
z55z229z1 z55z161z1 z55z242z1 
z229z161z1 z229z242z1 
z250z161z1 z250z242z1 
z288z161z1 z288z242z1 
z161z242z1 


End